letting n =  10
letting blocks =  [[1, 10], [2, 5], [2, 6], [3, 4], [3, 6], [4, 2], [4, 4], [4, 10], [5, 1], [6, 8], [7, 1], [7, 6], [7, 8], [8, 1], [8, 3], [8, 6], [8, 7], [8, 9], [9, 1], [9, 5], [9, 6], [9, 10], [10, 2], [10, 3]]
